c description: Tseitin formula on , with even charge
c generator: CNFgen (0.9.0)
c copyright: (C) 2012-2020 Massimo Lauria <massimo.lauria@uniroma1.it>
c url: https://massimolauria.net/cnfgen
c
p cnf 40 450
1 2 -3 0
1 -2 3 0
-1 2 3 0
-1 -2 -3 0
1 4 -5 0
1 -4 5 0
-1 4 5 0
-1 -4 -5 0
6 7 8 9 -10 0
6 7 8 -9 10 0
6 7 -8 9 10 0
6 7 -8 -9 -10 0
6 -7 8 9 10 0
6 -7 8 -9 -10 0
6 -7 -8 9 -10 0
6 -7 -8 -9 10 0
-6 7 8 9 10 0
-6 7 8 -9 -10 0
-6 7 -8 9 -10 0
-6 7 -8 -9 10 0
-6 -7 8 9 -10 0
-6 -7 8 -9 10 0
-6 -7 -8 9 10 0
-6 -7 -8 -9 -10 0
2 11 -12 0
2 -11 12 0
-2 11 12 0
-2 -11 -12 0
4 13 -14 0
4 -13 14 0
-4 13 14 0
-4 -13 -14 0
15 16 -17 0
15 -16 17 0
-15 16 17 0
-15 -16 -17 0
6 15 18 19 20 21 -22 0
6 15 18 19 20 -21 22 0
6 15 18 19 -20 21 22 0
6 15 18 19 -20 -21 -22 0
6 15 18 -19 20 21 22 0
6 15 18 -19 20 -21 -22 0
6 15 18 -19 -20 21 -22 0
6 15 18 -19 -20 -21 22 0
6 15 -18 19 20 21 22 0
6 15 -18 19 20 -21 -22 0
6 15 -18 19 -20 21 -22 0
6 15 -18 19 -20 -21 22 0
6 15 -18 -19 20 21 -22 0
6 15 -18 -19 20 -21 22 0
6 15 -18 -19 -20 21 22 0
6 15 -18 -19 -20 -21 -22 0
6 -15 18 19 20 21 22 0
6 -15 18 19 20 -21 -22 0
6 -15 18 19 -20 21 -22 0
6 -15 18 19 -20 -21 22 0
6 -15 18 -19 20 21 -22 0
6 -15 18 -19 20 -21 22 0
6 -15 18 -19 -20 21 22 0
6 -15 18 -19 -20 -21 -22 0
6 -15 -18 19 20 21 -22 0
6 -15 -18 19 20 -21 22 0
6 -15 -18 19 -20 21 22 0
6 -15 -18 19 -20 -21 -22 0
6 -15 -18 -19 20 21 22 0
6 -15 -18 -19 20 -21 -22 0
6 -15 -18 -19 -20 21 -22 0
6 -15 -18 -19 -20 -21 22 0
-6 15 18 19 20 21 22 0
-6 15 18 19 20 -21 -22 0
-6 15 18 19 -20 21 -22 0
-6 15 18 19 -20 -21 22 0
-6 15 18 -19 20 21 -22 0
-6 15 18 -19 20 -21 22 0
-6 15 18 -19 -20 21 22 0
-6 15 18 -19 -20 -21 -22 0
-6 15 -18 19 20 21 -22 0
-6 15 -18 19 20 -21 22 0
-6 15 -18 19 -20 21 22 0
-6 15 -18 19 -20 -21 -22 0
-6 15 -18 -19 20 21 22 0
-6 15 -18 -19 20 -21 -22 0
-6 15 -18 -19 -20 21 -22 0
-6 15 -18 -19 -20 -21 22 0
-6 -15 18 19 20 21 -22 0
-6 -15 18 19 20 -21 22 0
-6 -15 18 19 -20 21 22 0
-6 -15 18 19 -20 -21 -22 0
-6 -15 18 -19 20 21 22 0
-6 -15 18 -19 20 -21 -22 0
-6 -15 18 -19 -20 21 -22 0
-6 -15 18 -19 -20 -21 22 0
-6 -15 -18 19 20 21 22 0
-6 -15 -18 19 20 -21 -22 0
-6 -15 -18 19 -20 21 -22 0
-6 -15 -18 19 -20 -21 22 0
-6 -15 -18 -19 20 21 -22 0
-6 -15 -18 -19 20 -21 22 0
-6 -15 -18 -19 -20 21 22 0
-6 -15 -18 -19 -20 -21 -22 0
23 -24 0
-23 24 0
5 11 25 26 -27 0
5 11 25 -26 27 0
5 11 -25 26 27 0
5 11 -25 -26 -27 0
5 -11 25 26 27 0
5 -11 25 -26 -27 0
5 -11 -25 26 -27 0
5 -11 -25 -26 27 0
-5 11 25 26 27 0
-5 11 25 -26 -27 0
-5 11 -25 26 -27 0
-5 11 -25 -26 27 0
-5 -11 25 26 -27 0
-5 -11 25 -26 27 0
-5 -11 -25 26 27 0
-5 -11 -25 -26 -27 0
16 18 23 25 28 29 30 31 -32 0
16 18 23 25 28 29 30 -31 32 0
16 18 23 25 28 29 -30 31 32 0
16 18 23 25 28 29 -30 -31 -32 0
16 18 23 25 28 -29 30 31 32 0
16 18 23 25 28 -29 30 -31 -32 0
16 18 23 25 28 -29 -30 31 -32 0
16 18 23 25 28 -29 -30 -31 32 0
16 18 23 25 -28 29 30 31 32 0
16 18 23 25 -28 29 30 -31 -32 0
16 18 23 25 -28 29 -30 31 -32 0
16 18 23 25 -28 29 -30 -31 32 0
16 18 23 25 -28 -29 30 31 -32 0
16 18 23 25 -28 -29 30 -31 32 0
16 18 23 25 -28 -29 -30 31 32 0
16 18 23 25 -28 -29 -30 -31 -32 0
16 18 23 -25 28 29 30 31 32 0
16 18 23 -25 28 29 30 -31 -32 0
16 18 23 -25 28 29 -30 31 -32 0
16 18 23 -25 28 29 -30 -31 32 0
16 18 23 -25 28 -29 30 31 -32 0
16 18 23 -25 28 -29 30 -31 32 0
16 18 23 -25 28 -29 -30 31 32 0
16 18 23 -25 28 -29 -30 -31 -32 0
16 18 23 -25 -28 29 30 31 -32 0
16 18 23 -25 -28 29 30 -31 32 0
16 18 23 -25 -28 29 -30 31 32 0
16 18 23 -25 -28 29 -30 -31 -32 0
16 18 23 -25 -28 -29 30 31 32 0
16 18 23 -25 -28 -29 30 -31 -32 0
16 18 23 -25 -28 -29 -30 31 -32 0
16 18 23 -25 -28 -29 -30 -31 32 0
16 18 -23 25 28 29 30 31 32 0
16 18 -23 25 28 29 30 -31 -32 0
16 18 -23 25 28 29 -30 31 -32 0
16 18 -23 25 28 29 -30 -31 32 0
16 18 -23 25 28 -29 30 31 -32 0
16 18 -23 25 28 -29 30 -31 32 0
16 18 -23 25 28 -29 -30 31 32 0
16 18 -23 25 28 -29 -30 -31 -32 0
16 18 -23 25 -28 29 30 31 -32 0
16 18 -23 25 -28 29 30 -31 32 0
16 18 -23 25 -28 29 -30 31 32 0
16 18 -23 25 -28 29 -30 -31 -32 0
16 18 -23 25 -28 -29 30 31 32 0
16 18 -23 25 -28 -29 30 -31 -32 0
16 18 -23 25 -28 -29 -30 31 -32 0
16 18 -23 25 -28 -29 -30 -31 32 0
16 18 -23 -25 28 29 30 31 -32 0
16 18 -23 -25 28 29 30 -31 32 0
16 18 -23 -25 28 29 -30 31 32 0
16 18 -23 -25 28 29 -30 -31 -32 0
16 18 -23 -25 28 -29 30 31 32 0
16 18 -23 -25 28 -29 30 -31 -32 0
16 18 -23 -25 28 -29 -30 31 -32 0
16 18 -23 -25 28 -29 -30 -31 32 0
16 18 -23 -25 -28 29 30 31 32 0
16 18 -23 -25 -28 29 30 -31 -32 0
16 18 -23 -25 -28 29 -30 31 -32 0
16 18 -23 -25 -28 29 -30 -31 32 0
16 18 -23 -25 -28 -29 30 31 -32 0
16 18 -23 -25 -28 -29 30 -31 32 0
16 18 -23 -25 -28 -29 -30 31 32 0
16 18 -23 -25 -28 -29 -30 -31 -32 0
16 -18 23 25 28 29 30 31 32 0
16 -18 23 25 28 29 30 -31 -32 0
16 -18 23 25 28 29 -30 31 -32 0
16 -18 23 25 28 29 -30 -31 32 0
16 -18 23 25 28 -29 30 31 -32 0
16 -18 23 25 28 -29 30 -31 32 0
16 -18 23 25 28 -29 -30 31 32 0
16 -18 23 25 28 -29 -30 -31 -32 0
16 -18 23 25 -28 29 30 31 -32 0
16 -18 23 25 -28 29 30 -31 32 0
16 -18 23 25 -28 29 -30 31 32 0
16 -18 23 25 -28 29 -30 -31 -32 0
16 -18 23 25 -28 -29 30 31 32 0
16 -18 23 25 -28 -29 30 -31 -32 0
16 -18 23 25 -28 -29 -30 31 -32 0
16 -18 23 25 -28 -29 -30 -31 32 0
16 -18 23 -25 28 29 30 31 -32 0
16 -18 23 -25 28 29 30 -31 32 0
16 -18 23 -25 28 29 -30 31 32 0
16 -18 23 -25 28 29 -30 -31 -32 0
16 -18 23 -25 28 -29 30 31 32 0
16 -18 23 -25 28 -29 30 -31 -32 0
16 -18 23 -25 28 -29 -30 31 -32 0
16 -18 23 -25 28 -29 -30 -31 32 0
16 -18 23 -25 -28 29 30 31 32 0
16 -18 23 -25 -28 29 30 -31 -32 0
16 -18 23 -25 -28 29 -30 31 -32 0
16 -18 23 -25 -28 29 -30 -31 32 0
16 -18 23 -25 -28 -29 30 31 -32 0
16 -18 23 -25 -28 -29 30 -31 32 0
16 -18 23 -25 -28 -29 -30 31 32 0
16 -18 23 -25 -28 -29 -30 -31 -32 0
16 -18 -23 25 28 29 30 31 -32 0
16 -18 -23 25 28 29 30 -31 32 0
16 -18 -23 25 28 29 -30 31 32 0
16 -18 -23 25 28 29 -30 -31 -32 0
16 -18 -23 25 28 -29 30 31 32 0
16 -18 -23 25 28 -29 30 -31 -32 0
16 -18 -23 25 28 -29 -30 31 -32 0
16 -18 -23 25 28 -29 -30 -31 32 0
16 -18 -23 25 -28 29 30 31 32 0
16 -18 -23 25 -28 29 30 -31 -32 0
16 -18 -23 25 -28 29 -30 31 -32 0
16 -18 -23 25 -28 29 -30 -31 32 0
16 -18 -23 25 -28 -29 30 31 -32 0
16 -18 -23 25 -28 -29 30 -31 32 0
16 -18 -23 25 -28 -29 -30 31 32 0
16 -18 -23 25 -28 -29 -30 -31 -32 0
16 -18 -23 -25 28 29 30 31 32 0
16 -18 -23 -25 28 29 30 -31 -32 0
16 -18 -23 -25 28 29 -30 31 -32 0
16 -18 -23 -25 28 29 -30 -31 32 0
16 -18 -23 -25 28 -29 30 31 -32 0
16 -18 -23 -25 28 -29 30 -31 32 0
16 -18 -23 -25 28 -29 -30 31 32 0
16 -18 -23 -25 28 -29 -30 -31 -32 0
16 -18 -23 -25 -28 29 30 31 -32 0
16 -18 -23 -25 -28 29 30 -31 32 0
16 -18 -23 -25 -28 29 -30 31 32 0
16 -18 -23 -25 -28 29 -30 -31 -32 0
16 -18 -23 -25 -28 -29 30 31 32 0
16 -18 -23 -25 -28 -29 30 -31 -32 0
16 -18 -23 -25 -28 -29 -30 31 -32 0
16 -18 -23 -25 -28 -29 -30 -31 32 0
-16 18 23 25 28 29 30 31 32 0
-16 18 23 25 28 29 30 -31 -32 0
-16 18 23 25 28 29 -30 31 -32 0
-16 18 23 25 28 29 -30 -31 32 0
-16 18 23 25 28 -29 30 31 -32 0
-16 18 23 25 28 -29 30 -31 32 0
-16 18 23 25 28 -29 -30 31 32 0
-16 18 23 25 28 -29 -30 -31 -32 0
-16 18 23 25 -28 29 30 31 -32 0
-16 18 23 25 -28 29 30 -31 32 0
-16 18 23 25 -28 29 -30 31 32 0
-16 18 23 25 -28 29 -30 -31 -32 0
-16 18 23 25 -28 -29 30 31 32 0
-16 18 23 25 -28 -29 30 -31 -32 0
-16 18 23 25 -28 -29 -30 31 -32 0
-16 18 23 25 -28 -29 -30 -31 32 0
-16 18 23 -25 28 29 30 31 -32 0
-16 18 23 -25 28 29 30 -31 32 0
-16 18 23 -25 28 29 -30 31 32 0
-16 18 23 -25 28 29 -30 -31 -32 0
-16 18 23 -25 28 -29 30 31 32 0
-16 18 23 -25 28 -29 30 -31 -32 0
-16 18 23 -25 28 -29 -30 31 -32 0
-16 18 23 -25 28 -29 -30 -31 32 0
-16 18 23 -25 -28 29 30 31 32 0
-16 18 23 -25 -28 29 30 -31 -32 0
-16 18 23 -25 -28 29 -30 31 -32 0
-16 18 23 -25 -28 29 -30 -31 32 0
-16 18 23 -25 -28 -29 30 31 -32 0
-16 18 23 -25 -28 -29 30 -31 32 0
-16 18 23 -25 -28 -29 -30 31 32 0
-16 18 23 -25 -28 -29 -30 -31 -32 0
-16 18 -23 25 28 29 30 31 -32 0
-16 18 -23 25 28 29 30 -31 32 0
-16 18 -23 25 28 29 -30 31 32 0
-16 18 -23 25 28 29 -30 -31 -32 0
-16 18 -23 25 28 -29 30 31 32 0
-16 18 -23 25 28 -29 30 -31 -32 0
-16 18 -23 25 28 -29 -30 31 -32 0
-16 18 -23 25 28 -29 -30 -31 32 0
-16 18 -23 25 -28 29 30 31 32 0
-16 18 -23 25 -28 29 30 -31 -32 0
-16 18 -23 25 -28 29 -30 31 -32 0
-16 18 -23 25 -28 29 -30 -31 32 0
-16 18 -23 25 -28 -29 30 31 -32 0
-16 18 -23 25 -28 -29 30 -31 32 0
-16 18 -23 25 -28 -29 -30 31 32 0
-16 18 -23 25 -28 -29 -30 -31 -32 0
-16 18 -23 -25 28 29 30 31 32 0
-16 18 -23 -25 28 29 30 -31 -32 0
-16 18 -23 -25 28 29 -30 31 -32 0
-16 18 -23 -25 28 29 -30 -31 32 0
-16 18 -23 -25 28 -29 30 31 -32 0
-16 18 -23 -25 28 -29 30 -31 32 0
-16 18 -23 -25 28 -29 -30 31 32 0
-16 18 -23 -25 28 -29 -30 -31 -32 0
-16 18 -23 -25 -28 29 30 31 -32 0
-16 18 -23 -25 -28 29 30 -31 32 0
-16 18 -23 -25 -28 29 -30 31 32 0
-16 18 -23 -25 -28 29 -30 -31 -32 0
-16 18 -23 -25 -28 -29 30 31 32 0
-16 18 -23 -25 -28 -29 30 -31 -32 0
-16 18 -23 -25 -28 -29 -30 31 -32 0
-16 18 -23 -25 -28 -29 -30 -31 32 0
-16 -18 23 25 28 29 30 31 -32 0
-16 -18 23 25 28 29 30 -31 32 0
-16 -18 23 25 28 29 -30 31 32 0
-16 -18 23 25 28 29 -30 -31 -32 0
-16 -18 23 25 28 -29 30 31 32 0
-16 -18 23 25 28 -29 30 -31 -32 0
-16 -18 23 25 28 -29 -30 31 -32 0
-16 -18 23 25 28 -29 -30 -31 32 0
-16 -18 23 25 -28 29 30 31 32 0
-16 -18 23 25 -28 29 30 -31 -32 0
-16 -18 23 25 -28 29 -30 31 -32 0
-16 -18 23 25 -28 29 -30 -31 32 0
-16 -18 23 25 -28 -29 30 31 -32 0
-16 -18 23 25 -28 -29 30 -31 32 0
-16 -18 23 25 -28 -29 -30 31 32 0
-16 -18 23 25 -28 -29 -30 -31 -32 0
-16 -18 23 -25 28 29 30 31 32 0
-16 -18 23 -25 28 29 30 -31 -32 0
-16 -18 23 -25 28 29 -30 31 -32 0
-16 -18 23 -25 28 29 -30 -31 32 0
-16 -18 23 -25 28 -29 30 31 -32 0
-16 -18 23 -25 28 -29 30 -31 32 0
-16 -18 23 -25 28 -29 -30 31 32 0
-16 -18 23 -25 28 -29 -30 -31 -32 0
-16 -18 23 -25 -28 29 30 31 -32 0
-16 -18 23 -25 -28 29 30 -31 32 0
-16 -18 23 -25 -28 29 -30 31 32 0
-16 -18 23 -25 -28 29 -30 -31 -32 0
-16 -18 23 -25 -28 -29 30 31 32 0
-16 -18 23 -25 -28 -29 30 -31 -32 0
-16 -18 23 -25 -28 -29 -30 31 -32 0
-16 -18 23 -25 -28 -29 -30 -31 32 0
-16 -18 -23 25 28 29 30 31 32 0
-16 -18 -23 25 28 29 30 -31 -32 0
-16 -18 -23 25 28 29 -30 31 -32 0
-16 -18 -23 25 28 29 -30 -31 32 0
-16 -18 -23 25 28 -29 30 31 -32 0
-16 -18 -23 25 28 -29 30 -31 32 0
-16 -18 -23 25 28 -29 -30 31 32 0
-16 -18 -23 25 28 -29 -30 -31 -32 0
-16 -18 -23 25 -28 29 30 31 -32 0
-16 -18 -23 25 -28 29 30 -31 32 0
-16 -18 -23 25 -28 29 -30 31 32 0
-16 -18 -23 25 -28 29 -30 -31 -32 0
-16 -18 -23 25 -28 -29 30 31 32 0
-16 -18 -23 25 -28 -29 30 -31 -32 0
-16 -18 -23 25 -28 -29 -30 31 -32 0
-16 -18 -23 25 -28 -29 -30 -31 32 0
-16 -18 -23 -25 28 29 30 31 -32 0
-16 -18 -23 -25 28 29 30 -31 32 0
-16 -18 -23 -25 28 29 -30 31 32 0
-16 -18 -23 -25 28 29 -30 -31 -32 0
-16 -18 -23 -25 28 -29 30 31 32 0
-16 -18 -23 -25 28 -29 30 -31 -32 0
-16 -18 -23 -25 28 -29 -30 31 -32 0
-16 -18 -23 -25 28 -29 -30 -31 32 0
-16 -18 -23 -25 -28 29 30 31 32 0
-16 -18 -23 -25 -28 29 30 -31 -32 0
-16 -18 -23 -25 -28 29 -30 31 -32 0
-16 -18 -23 -25 -28 29 -30 -31 32 0
-16 -18 -23 -25 -28 -29 30 31 -32 0
-16 -18 -23 -25 -28 -29 30 -31 32 0
-16 -18 -23 -25 -28 -29 -30 31 32 0
-16 -18 -23 -25 -28 -29 -30 -31 -32 0
3 13 -33 0
3 -13 33 0
-3 13 33 0
-3 -13 -33 0
17 19 -34 0
17 -19 34 0
-17 19 34 0
-17 -19 -34 0
7 20 24 28 -33 0
7 20 24 -28 33 0
7 20 -24 28 33 0
7 20 -24 -28 -33 0
7 -20 24 28 33 0
7 -20 24 -28 -33 0
7 -20 -24 28 -33 0
7 -20 -24 -28 33 0
-7 20 24 28 33 0
-7 20 24 -28 -33 0
-7 20 -24 28 -33 0
-7 20 -24 -28 33 0
-7 -20 24 28 -33 0
-7 -20 24 -28 33 0
-7 -20 -24 28 33 0
-7 -20 -24 -28 -33 0
21 29 -35 0
21 -29 35 0
-21 29 35 0
-21 -29 -35 0
26 30 -36 0
26 -30 36 0
-26 30 36 0
-26 -30 -36 0
8 35 37 -38 0
8 35 -37 38 0
8 -35 37 38 0
8 -35 -37 -38 0
-8 35 37 38 0
-8 35 -37 -38 0
-8 -35 37 -38 0
-8 -35 -37 38 0
9 22 27 36 -39 0
9 22 27 -36 39 0
9 22 -27 36 39 0
9 22 -27 -36 -39 0
9 -22 27 36 39 0
9 -22 27 -36 -39 0
9 -22 -27 36 -39 0
9 -22 -27 -36 39 0
-9 22 27 36 39 0
-9 22 27 -36 -39 0
-9 22 -27 36 -39 0
-9 22 -27 -36 39 0
-9 -22 27 36 -39 0
-9 -22 27 -36 39 0
-9 -22 -27 36 39 0
-9 -22 -27 -36 -39 0
12 14 37 -40 0
12 14 -37 40 0
12 -14 37 40 0
12 -14 -37 -40 0
-12 14 37 40 0
-12 14 -37 -40 0
-12 -14 37 -40 0
-12 -14 -37 40 0
31 38 -39 0
31 -38 39 0
-31 38 39 0
-31 -38 -39 0
10 32 34 -40 0
10 32 -34 40 0
10 -32 34 40 0
10 -32 -34 -40 0
-10 32 34 40 0
-10 32 -34 -40 0
-10 -32 34 -40 0
-10 -32 -34 40 0